50 1225
1 2 281
1 3 796
1 4 588
1 5 253
1 6 396
1 7 898
1 8 198
1 9 174
1 10 511
1 11 704
1 12 192
1 13 336
1 14 540
1 15 150
1 16 587
1 17 617
1 18 94
1 19 569
1 20 827
1 21 553
1 22 595
1 23 801
1 24 486
1 25 731
1 26 619
1 27 137
1 28 529
1 29 378
1 30 600
1 31 321
1 32 454
1 33 528
1 34 229
1 35 225
1 36 736
1 37 581
1 38 181
1 39 597
1 40 543
1 41 428
1 42 491
1 43 692
1 44 400
1 45 424
1 46 402
1 47 399
1 48 623
1 49 463
1 50 436
2 3 815
2 4 455
2 5 112
2 6 530
2 7 1093
2 8 450
2 9 456
2 10 785
2 11 890
2 12 453
2 13 131
2 14 486
2 15 432
2 16 819
2 17 522
2 18 256
2 19 801
2 20 754
2 21 497
2 22 824
2 23 965
2 24 549
2 25 697
2 26 758
2 27 306
2 28 391
2 29 544
2 30 579
2 31 599
2 32 735
2 33 514
2 34 511
2 35 59
2 36 970
2 37 862
2 38 310
2 39 655
2 40 525
2 41 183
2 42 427
2 43 922
2 44 119
2 45 551
2 46 674
2 47 680
2 48 710
2 49 738
2 50 296
3 4 460
3 5 904
3 6 435
3 7 638
3 8 701
3 9 842
3 10 862
3 11 513
3 12 932
3 13 700
3 14 344
3 15 833
3 16 663
3 17 367
3 18 707
3 19 655
3 20 266
3 21 336
3 22 649
3 23 465
3 24 311
3 25 170
3 26 350
3 27 658
3 28 496
3 29 486
3 30 242
3 31 829
3 32 952
3 33 301
3 34 845
3 35 820
3 36 729
3 37 1051
3 38 972
3 39 207
3 40 290
3 41 980
3 42 399
3 43 687
3 44 854
3 45 409
3 46 809
3 47 905
3 48 228
3 49 1055
3 50 552
4 5 565
4 6 469
4 7 973
4 8 620
4 9 721
4 10 924
4 11 786
4 12 775
4 13 323
4 14 152
4 15 702
4 16 829
4 17 93
4 18 497
4 19 814
4 20 310
4 21 150
4 22 824
4 23 805
4 24 363
4 25 299
4 26 602
4 27 486
4 28 64
4 29 524
4 30 238
4 31 797
4 32 947
4 33 227
4 34 755
4 35 487
4 36 955
4 37 1073
4 38 718
4 39 405
4 40 224
4 41 577
4 42 141
4 43 904
4 44 446
4 45 467
4 46 829
4 47 889
4 48 485
4 49 1006
4 50 162
5 6 580
5 7 1127
5 8 446
5 9 416
5 10 763
5 11 926
5 12 391
5 13 242
5 14 585
5 15 393
5 16 831
5 17 629
5 18 268
5 19 813
5 20 859
5 21 596
5 22 838
5 23 1011
5 24 622
5 25 796
5 26 811
5 27 327
5 28 501
5 29 582
5 30 673
5 31 571
5 32 694
5 33 606
5 34 474
5 35 84
5 36 981
5 37 817
5 38 218
5 39 732
5 40 618
5 41 178
5 42 526
5 43 936
5 44 194
5 45 604
5 46 654
5 47 643
5 48 780
5 49 679
5 50 404
6 7 570
6 8 267
6 9 409
6 10 474
6 11 366
6 12 502
6 13 469
6 14 333
6 15 403
6 16 361
6 17 433
6 18 325
6 19 345
6 20 560
6 21 342
6 22 357
6 23 434
6 24 143
6 25 433
6 26 231
6 27 265
6 28 445
6 29 61
6 30 321
6 31 400
6 32 535
6 33 271
6 34 410
6 35 506
6 36 495
6 37 648
6 38 577
6 39 228
6 40 283
6 41 714
6 42 327
6 43 443
6 44 619
6 45 28
6 46 396
6 47 483
6 48 231
6 49 627
6 50 414
7 8 705
7 9 813
7 10 566
7 11 203
7 12 908
7 13 1039
7 14 820
7 15 823
7 16 342
7 17 902
7 18 859
7 19 355
7 20 897
7 21 822
7 22 327
7 23 175
7 24 617
7 25 774
7 26 371
7 27 799
7 28 972
7 29 549
7 30 747
7 31 688
7 32 712
7 33 746
7 34 774
7 35 1062
7 36 245
7 37 735
7 38 1061
7 39 572
7 40 749
7 41 1276
7 42 844
7 43 253
7 44 1188
7 45 553
7 46 606
7 47 702
7 48 491
7 49 838
7 50 967
8 9 142
8 10 340
8 11 515
8 12 238
8 13 461
8 14 526
8 15 139
8 16 388
8 17 620
8 18 194
8 19 370
8 20 795
8 21 537
8 22 396
8 23 619
8 24 396
8 25 678
8 26 458
8 27 157
8 28 574
8 29 225
8 30 553
8 31 177
8 32 329
8 33 488
8 34 147
8 35 402
8 36 537
8 37 457
8 38 357
8 39 493
8 40 502
8 41 616
8 42 493
8 43 493
8 44 566
8 45 294
8 46 231
8 47 270
8 48 496
8 49 389
8 50 500
9 10 352
9 11 634
9 12 99
9 13 504
9 14 644
9 15 23
9 16 478
9 17 733
9 18 234
9 19 462
9 20 922
9 21 656
9 22 490
9 23 745
9 24 534
9 25 810
9 26 596
9 27 234
9 28 667
9 29 367
9 30 683
9 31 158
9 32 280
9 33 615
9 34 57
9 35 399
9 36 618
9 37 406
9 38 264
9 39 634
9 40 629
9 41 594
9 42 605
9 43 581
9 44 575
9 45 436
9 46 249
9 47 227
9 48 638
9 49 294
9 50 582
10 11 452
10 12 418
10 13 801
10 14 803
10 15 373
10 16 243
10 17 902
10 18 533
10 19 239
10 20 1031
10 21 812
10 22 261
10 23 572
10 24 615
10 25 900
10 26 525
10 27 497
10 28 887
10 29 413
10 30 796
10 31 193
10 32 146
10 33 745
10 34 296
10 35 733
10 36 328
10 37 194
10 38 612
10 39 672
10 40 757
10 41 940
10 42 786
10 43 313
10 44 902
10 45 489
10 46 110
10 47 152
10 48 633
10 49 272
10 50 825
11 12 733
11 13 836
11 14 635
11 15 642
11 16 208
11 17 722
11 18 659
11 19 213
11 20 752
11 21 638
11 22 191
11 23 120
11 24 424
11 25 621
11 26 187
11 27 599
11 28 780
11 29 346
11 30 572
11 31 528
11 32 586
11 33 560
11 34 603
11 35 860
11 36 218
11 37 641
11 38 872
11 39 398
11 40 565
11 41 1073
11 42 653
11 43 182
11 44 984
11 45 351
11 46 459
11 47 563
11 48 322
11 49 711
11 50 769
12 13 526
12 14 714
12 15 99
12 16 570
12 17 798
12 18 277
12 19 554
12 20 997
12 21 726
12 22 582
12 23 844
12 24 621
12 25 890
12 26 695
12 27 296
12 28 718
12 29 464
12 30 761
12 31 232
12 32 316
12 33 691
12 34 134
12 35 394
12 36 706
12 37 430
12 38 200
12 39 725
12 40 706
12 41 566
12 42 670
12 43 672
12 44 569
12 45 530
12 46 325
12 47 274
12 48 733
12 49 288
12 50 627
13 14 363
13 15 481
13 16 795
13 17 392
13 18 274
13 19 777
13 20 623
13 21 373
13 22 797
13 23 897
13 24 457
13 25 573
13 26 685
13 27 303
13 28 259
13 29 496
13 30 460
13 31 629
13 32 775
13 33 400
13 34 554
13 35 169
13 36 943
13 37 905
13 38 417
13 39 556
13 40 409
13 41 279
13 42 304
13 43 892
13 44 158
13 45 486
13 46 692
13 47 717
13 48 619
13 49 798
13 50 165
14 15 629
14 16 688
14 17 99
14 18 445
14 19 673
14 20 287
14 21 12
14 22 681
14 23 653
14 24 214
14 25 211
14 26 450
14 27 417
14 28 162
14 29 392
14 30 102
14 31 695
14 32 843
14 33 75
14 34 670
14 35 501
14 36 809
14 37 965
14 38 696
14 39 254
14 40 72
14 41 640
14 42 58
14 43 757
14 44 513
14 45 327
14 46 715
14 47 786
14 48 334
14 49 915
14 50 208
15 16 490
15 17 716
15 18 212
15 19 474
15 20 908
15 21 641
15 22 502
15 23 750
15 24 524
15 25 798
15 26 596
15 27 215
15 28 648
15 29 364
15 30 669
15 31 179
15 32 303
15 33 601
15 34 80
15 35 375
15 36 633
15 37 430
15 38 247
15 39 627
15 40 615
15 41 572
15 42 588
15 43 595
15 44 551
15 45 430
15 46 268
15 47 250
15 48 633
15 49 316
15 50 562
16 17 785
16 18 567
16 19 18
16 20 868
16 21 694
16 22 17
16 23 328
16 24 477
16 25 734
16 26 313
16 27 513
16 28 807
16 29 312
16 30 652
16 31 346
16 32 381
16 33 618
16 34 435
16 35 778
16 36 150
16 37 433
16 38 735
16 39 499
16 40 628
16 41 995
16 42 688
16 43 105
16 44 927
16 45 361
16 46 264
16 47 363
16 48 441
16 49 507
16 50 770
17 18 524
17 19 771
17 20 231
17 21 91
17 22 778
17 23 731
17 24 309
17 25 205
17 26 536
17 27 502
17 28 142
17 29 492
17 30 156
17 31 792
17 32 940
17 33 166
17 34 762
17 35 548
17 36 903
17 37 1063
17 38 762
17 39 330
17 40 159
17 41 658
17 42 128
17 43 852
17 44 527
17 45 426
17 46 813
17 47 883
17 48 411
17 49 1009
17 50 227
18 19 549
18 20 733
18 21 458
18 22 573
18 23 747
18 24 400
18 25 637
18 26 554
18 27 60
18 28 440
18 29 318
18 30 506
18 31 355
18 32 500
18 33 434
18 34 280
18 35 211
18 36 718
18 37 630
18 38 265
18 39 512
18 40 449
18 41 428
18 42 397
18 43 671
18 44 371
18 45 351
18 46 422
18 47 442
18 48 544
18 49 528
18 50 351
19 20 857
19 21 680
19 22 28
19 23 334
19 24 463
19 25 723
19 26 306
19 27 495
19 28 791
19 29 294
19 30 639
19 31 332
19 32 373
19 33 604
19 34 420
19 35 760
19 36 168
19 37 430
19 38 718
19 39 488
19 40 614
19 41 977
19 42 672
19 43 123
19 44 909
19 45 346
19 46 252
19 47 353
19 48 432
19 49 499
19 50 753
20 21 275
20 22 858
20 23 722
20 24 417
20 25 134
20 26 571
20 27 701
20 28 369
20 29 621
20 30 242
20 31 954
20 32 1094
20 33 307
20 34 942
20 35 777
20 36 959
20 37 1208
20 38 983
20 39 369
20 40 293
20 41 887
20 42 340
20 43 912
20 44 755
20 45 543
20 46 957
20 47 1041
20 48 434
20 49 1179
20 50 458
21 22 688
21 23 654
21 24 219
21 25 200
21 26 453
21 27 429
21 28 166
21 29 401
21 30 96
21 31 706
21 32 853
21 33 78
21 34 681
21 35 513
21 36 814
21 37 975
21 38 708
21 39 254
21 40 73
21 41 650
21 42 70
21 43 763
21 44 522
21 45 335
21 46 725
21 47 797
21 48 334
21 49 926
21 50 216
22 23 310
22 24 469
22 25 723
22 26 299
22 27 518
22 28 803
22 29 310
22 30 644
22 31 360
22 32 398
22 33 611
22 34 448
22 35 784
22 36 146
22 37 450
22 38 746
22 39 488
22 40 620
22 41 1001
22 42 683
22 43 97
22 44 931
22 45 356
22 46 280
22 47 380
22 48 428
22 49 525
22 50 768
23 24 457
23 25 599
23 26 212
23 27 686
23 28 808
23 29 428
23 30 575
23 31 646
23 32 707
23 33 578
23 34 716
23 35 940
23 36 310
23 37 760
23 38 974
23 39 401
23 40 580
23 41 1148
23 42 680
23 43 286
23 44 1051
23 45 413
23 46 579
23 47 683
23 48 319
23 49 832
23 50 811
24 25 289
24 26 246
24 27 348
24 28 356
24 29 203
24 30 180
24 31 541
24 32 678
24 33 142
24 34 543
24 35 540
24 36 594
24 37 791
24 38 664
24 39 112
24 40 151
24 41 727
24 42 228
24 43 543
24 44 616
24 45 126
24 46 540
24 47 626
24 48 162
24 49 768
24 50 354
25 26 438
25 27 599
25 28 343
25 29 492
25 30 130
25 31 830
25 32 968
25 33 202
25 34 826
25 35 712
25 36 826
25 37 1080
25 38 896
25 39 235
25 40 188
25 41 849
25 42 270
25 43 779
25 44 719
25 45 414
25 46 829
25 47 915
25 48 301
25 49 1057
25 50 413
26 27 494
26 28 601
26 29 241
26 30 384
26 31 534
26 32 633
26 33 375
26 34 580
26 35 737
26 36 388
26 37 718
26 38 798
26 39 211
26 40 380
26 41 941
26 42 473
26 43 342
26 44 840
26 45 207
26 46 491
26 47 594
26 48 137
26 49 749
26 50 599
27 28 434
27 29 257
27 30 468
27 31 330
27 32 480
27 33 397
27 34 271
27 35 266
27 36 664
27 37 610
27 38 317
27 39 459
27 40 412
27 41 483
27 42 374
27 43 616
27 44 417
27 45 292
27 46 388
27 47 421
27 48 487
27 49 523
27 50 352
28 29 497
28 30 261
28 31 751
28 32 902
28 33 232
28 34 704
28 35 423
28 36 938
28 37 1030
28 38 655
28 39 414
28 40 233
28 41 517
28 42 127
28 43 886
28 44 386
28 45 447
28 46 788
28 47 844
28 48 493
28 49 956
28 50 98
29 30 382
29 31 343
29 32 475
29 33 332
29 34 362
29 35 514
29 36 452
29 37 587
29 38 557
29 39 280
29 40 344
29 41 727
29 42 383
29 43 400
29 44 640
29 45 79
29 46 336
29 47 424
29 48 272
29 49 571
29 50 458
30 31 711
30 32 853
30 33 71
30 34 700
30 35 589
30 36 761
30 37 969
30 38 766
30 39 175
30 40 57
30 41 739
30 42 157
30 43 711
30 44 613
30 45 307
30 46 717
30 47 799
30 48 255
30 49 937
30 50 310
31 32 151
31 33 650
31 34 103
31 35 545
31 36 475
31 37 280
31 38 420
31 39 624
31 40 664
31 41 749
31 42 667
31 43 444
31 44 718
31 45 422
31 46 92
31 47 92
31 48 608
31 49 227
31 50 678
32 33 794
32 34 224
32 35 679
32 36 474
32 37 129
32 38 516
32 39 752
32 40 808
32 41 873
32 42 816
32 43 458
32 44 855
32 45 555
32 46 143
32 47 58
32 48 726
32 49 127
32 50 829
33 34 634
33 35 521
33 36 736
33 37 913
33 38 694
33 39 182
33 40 14
33 41 679
33 42 109
33 43 685
33 44 556
33 45 261
33 46 662
33 47 739
33 48 261
33 49 874
33 50 260
34 35 454
34 36 572
34 37 352
34 38 317
34 39 638
34 40 649
34 41 652
34 42 634
34 43 537
34 44 630
34 45 436
34 46 195
34 47 170
34 48 634
34 49 251
34 50 623
35 36 929
35 37 805
35 38 254
35 39 649
35 40 533
35 41 216
35 42 443
35 43 882
35 44 176
35 45 530
35 46 622
35 47 625
35 48 699
35 49 679
35 50 325
36 37 489
36 38 879
36 39 594
36 40 744
36 41 1146
36 42 815
36 43 51
36 44 1077
36 45 490
36 46 386
36 47 472
36 48 525
36 49 600
36 50 908
37 38 628
37 39 857
37 40 926
37 41 994
37 42 940
37 43 487
37 44 981
37 45 665
37 46 251
37 47 188
37 48 823
37 49 165
37 50 958
38 39 776
38 40 708
38 41 381
38 42 642
38 43 840
38 44 412
38 45 605
38 46 512
38 47 473
38 48 804
38 49 478
38 50 557
39 40 182
39 41 831
39 42 290
39 43 546
39 44 715
39 45 202
39 46 610
39 47 703
39 48 81
39 49 851
39 50 435
40 41 689
40 42 114
40 43 693
40 44 564
40 45 272
40 46 675
40 47 753
40 48 262
40 49 888
40 50 266
41 42 582
41 43 1099
41 44 131
41 45 735
41 46 831
41 47 821
41 48 890
41 49 854
41 50 435
42 43 764
42 44 455
42 45 326
42 46 693
42 47 758
42 48 367
42 49 882
42 50 153
43 44 1028
43 45 439
43 46 357
43 47 450
43 48 478
43 49 585
43 50 857
44 45 638
44 46 792
44 47 800
44 48 778
44 49 855
44 50 306
45 46 415
45 47 504
45 48 203
45 49 650
45 50 422
46 47 105
46 48 582
46 49 258
46 50 723
47 48 680
47 49 154
47 50 770
48 49 832
48 50 508
49 50 874
